20
1 0 1
2 0 3
2 1 1
3 0 1
3 1 6
3 2 4
4 0 7
4 1 7
4 2 3
4 3 1
5 0 2
5 1 2
5 2 7
5 3 2
5 4 2
6 0 3
6 1 5
6 2 2
6 3 2
6 4 6
6 5 4
7 0 1
7 1 3
7 2 4
7 3 5
7 4 6
7 5 3
7 6 6
8 0 1
8 1 4
8 2 2
8 3 1
8 4 4
8 5 1
8 6 6
8 7 5
9 0 1
9 1 2
9 2 7
9 3 7
9 4 6
9 5 6
9 6 4
9 7 2
9 8 5
10 0 3
10 1 1
10 2 4
10 3 5
10 4 4
10 5 5
10 6 5
10 7 6
10 8 5
10 9 6
11 0 7
11 1 7
11 2 1
11 3 4
11 4 1
11 5 5
11 6 4
11 7 6
11 8 4
11 9 4
11 10 3
12 0 6
12 1 3
12 2 6
12 3 3
12 4 5
12 5 1
12 6 3
12 7 7
12 8 5
12 9 6
12 10 2
12 11 7
13 0 1
13 1 1
13 2 6
13 3 1
13 4 3
13 5 4
13 6 7
13 7 7
13 8 6
13 9 3
13 10 6
13 11 1
13 12 4
14 0 6
14 1 6
14 2 3
14 3 4
14 4 7
14 5 1
14 6 3
14 7 1
14 8 4
14 9 3
14 10 4
14 11 6
14 12 6
14 13 3
15 0 3
15 1 3
15 2 5
15 3 4
15 4 5
15 5 7
15 6 2
15 7 6
15 8 2
15 9 4
15 10 4
15 11 4
15 12 1
15 13 4
15 14 1
16 0 6
16 1 6
16 2 2
16 3 2
16 4 5
16 5 7
16 6 4
16 7 1
16 8 5
16 9 1
16 10 5
16 11 5
16 12 1
16 13 5
16 14 3
16 15 2
17 0 7
17 1 4
17 2 4
17 3 5
17 4 6
17 5 3
17 6 5
17 7 1
17 8 3
17 9 1
17 10 6
17 11 3
17 12 1
17 13 7
17 14 4
17 15 6
17 16 1
18 0 2
18 1 3
18 2 2
18 3 5
18 4 5
18 5 3
18 6 2
18 7 4
18 8 7
18 9 4
18 10 6
18 11 3
18 12 6
18 13 5
18 14 7
18 15 1
18 16 4
18 17 1
19 0 6
19 1 4
19 2 5
19 3 2
19 4 7
19 5 7
19 6 2
19 7 6
19 8 3
19 9 3
19 10 6
19 11 6
19 12 3
19 13 6
19 14 2
19 15 3
19 16 2
19 17 2
19 18 6
